\ Model vehicle_routing
\ LP format - for model browsing. Use MPS format to capture full model detail.
Minimize
  2.09 x[0,0] + 2.09 x[0,1] + 2.74 x[1,0] + 2.74 x[1,1] + 2.09 x[2,0]
   + 2.09 x[2,1] + 0 y[0,0,0] + 2.09 y[0,0,1] + 2.09 y[0,1,0] + 0 y[0,1,1]
   + 0 y[1,0,0] + 2.74 y[1,0,1] + 2.74 y[1,1,0] + 0 y[1,1,1] + 0 y[2,0,0]
   + 2.09 y[2,0,1] + 2.09 y[2,1,0] + 0 y[2,1,1]
Subject To
 constr1_0: x[0,0] + x[1,0] + x[2,0] + y[0,0,1] + y[0,1,0] + y[1,0,1]
   + y[1,1,0] + y[2,0,1] + y[2,1,0] = 1
 constr1_1: x[0,1] + x[1,1] + x[2,1] + y[0,0,1] + y[0,1,0] + y[1,0,1]
   + y[1,1,0] + y[2,0,1] + y[2,1,0] = 1
 constr2_0: x[0,0] + x[0,1] + y[0,0,1] + y[0,1,0] <= 1
 constr2_1: x[1,0] + x[1,1] + y[1,0,1] + y[1,1,0] <= 1
 constr2_2: x[2,0] + x[2,1] + y[2,0,1] + y[2,1,0] <= 1
Bounds
Binaries
 x[0,0] x[0,1] x[1,0] x[1,1] x[2,0] x[2,1] y[0,0,0] y[0,0,1] y[0,1,0]
 y[0,1,1] y[1,0,0] y[1,0,1] y[1,1,0] y[1,1,1] y[2,0,0] y[2,0,1] y[2,1,0]
 y[2,1,1]
End
